units lj
dimension 2
atom_style atomic
boundary p p p

region box block -10.0 10.0 -10.0 10.0 -0.1 0.1
create_box 1 box

mass * 1.0
create_atoms 1 random 10 341341 box

pair_style lj/cut 2.5
pair_coeff * * 1.0 1.0

minimize 1.0e-4 1.0e-6 1000 10000

fix mynve all nve
fix myefn all enforce2d
fix myarbfn all arbfn maxdelay 50.0

dump mov all movie 1000 movie.avi type type

reset_timestep 0
timestep 0.005
run 40000
